
(model
  (define-fun c2 () (Array (Array Int Int) (Array (Array Int Int) (Array Int Int))) ((as const (Array (Array Int Int) (Array (Array Int Int) (Array Int Int)))) ((as const (Array (Array Int Int) (Array Int Int))) ((as const (Array Int Int)) 0))))
  (define-fun c1 () (Array (Array Int Int) (Array (Array Int Int) (Array Int Int))) ((as const (Array (Array Int Int) (Array (Array Int Int) (Array Int Int)))) ((as const (Array (Array Int Int) (Array Int Int))) ((as const (Array Int Int)) 0))))
  (define-fun a2 () (Array Int Int) ((as const (Array Int Int)) 0))
  (define-fun a1 () (Array Int Int) ((as const (Array Int Int)) 0))
)
